x = 15;
y = 16;
c = 70;
n = 49;

p = [93  12  37  82  52  61  84  72  25  71  34  44  65  60  18  63  67  17  41  19  52  11  46  38  15  21  86  36  31  99  39  88  66  63  47  41  90  25  68  82  58  85  97  18  69  65  56  11  54];
w = [5  7  9  9  9  5  6  2  8  2  2  5  6  1  6  1  2  8  2  10  2  6  2  10  10  4  8  6  9  5  1  10  6  8  7  1  5  2  7  4  2  2  6  4  10  4  9  3  2];
s = [9  7  3  13  10  4  12  1  1  12  13  5  5  2  11  12  2  2  14  6  4  6  7  8  5  5  5  12  8  3  3  14  14  3  13  15  12  1  1  2  6  14  2  11  12  3  1  8  3];
